%block lattice_abc
12.5280 12.5280 12.5280
90 90 90
%endblock lattice_abc

%block positions_frac
O 0.0 0.0 0.0 
O 0.16666666666666666 0.16666666666666666 0.16666666666666666 
Cu 0.08333333333333333 0.08333333333333333 0.08333333333333333 
Cu 0.25 0.25 0.08333333333333333 
Cu 0.25 0.08333333333333333 0.25 
Cu 0.08333333333333333 0.25 0.25 
O 0.0 0.0 0.3333333333333333 
O 0.16666666666666666 0.16666666666666666 0.5 
Cu 0.08333333333333333 0.08333333333333333 0.41666666666666663 
Cu 0.25 0.25 0.41666666666666663 
Cu 0.25 0.08333333333333333 0.5833333333333333 
Cu 0.08333333333333333 0.25 0.5833333333333333 
O 0.0 0.0 0.6666666666666666 
O 0.16666666666666666 0.16666666666666666 0.8333333333333333 
Cu 0.08333333333333333 0.08333333333333333 0.75 
Cu 0.25 0.25 0.75 
Cu 0.25 0.08333333333333333 0.9166666666666666 
Cu 0.08333333333333333 0.25 0.9166666666666666 
O 0.0 0.3333333333333333 0.0 
O 0.16666666666666666 0.5 0.16666666666666666 
Cu 0.08333333333333333 0.41666666666666663 0.08333333333333333 
Cu 0.25 0.5833333333333333 0.08333333333333333 
Cu 0.25 0.41666666666666663 0.25 
Cu 0.08333333333333333 0.5833333333333333 0.25 
O 0.0 0.3333333333333333 0.3333333333333333 
O 0.16666666666666666 0.5 0.5 
Cu 0.08333333333333333 0.41666666666666663 0.41666666666666663 
Cu 0.25 0.5833333333333333 0.41666666666666663 
Cu 0.25 0.41666666666666663 0.5833333333333333 
Cu 0.08333333333333333 0.5833333333333333 0.5833333333333333 
O 0.0 0.3333333333333333 0.6666666666666666 
O 0.16666666666666666 0.5 0.8333333333333333 
Cu 0.08333333333333333 0.41666666666666663 0.75 
Cu 0.25 0.5833333333333333 0.75 
Cu 0.25 0.41666666666666663 0.9166666666666666 
Cu 0.08333333333333333 0.5833333333333333 0.9166666666666666 
O 0.0 0.6666666666666666 0.0 
O 0.16666666666666666 0.8333333333333333 0.16666666666666666 
Cu 0.08333333333333333 0.75 0.08333333333333333 
Cu 0.25 0.9166666666666666 0.08333333333333333 
Cu 0.25 0.75 0.25 
Cu 0.08333333333333333 0.9166666666666666 0.25 
O 0.0 0.6666666666666666 0.3333333333333333 
O 0.16666666666666666 0.8333333333333333 0.5 
Cu 0.08333333333333333 0.75 0.41666666666666663 
Cu 0.25 0.9166666666666666 0.41666666666666663 
Cu 0.25 0.75 0.5833333333333333 
Cu 0.08333333333333333 0.9166666666666666 0.5833333333333333 
O 0.0 0.6666666666666666 0.6666666666666666 
O 0.16666666666666666 0.8333333333333333 0.8333333333333333 
Cu 0.08333333333333333 0.75 0.75 
Cu 0.25 0.9166666666666666 0.75 
Cu 0.25 0.75 0.9166666666666666 
Cu 0.08333333333333333 0.9166666666666666 0.9166666666666666 
O 0.3333333333333333 0.0 0.0 
O 0.5 0.16666666666666666 0.16666666666666666 
Cu 0.41666666666666663 0.08333333333333333 0.08333333333333333 
Cu 0.5833333333333333 0.25 0.08333333333333333 
Cu 0.5833333333333333 0.08333333333333333 0.25 
Cu 0.41666666666666663 0.25 0.25 
O 0.3333333333333333 0.0 0.3333333333333333 
O 0.5 0.16666666666666666 0.5 
Cu 0.41666666666666663 0.08333333333333333 0.41666666666666663 
Cu 0.5833333333333333 0.25 0.41666666666666663 
Cu 0.5833333333333333 0.08333333333333333 0.5833333333333333 
Cu 0.41666666666666663 0.25 0.5833333333333333 
O 0.3333333333333333 0.0 0.6666666666666666 
O 0.5 0.16666666666666666 0.8333333333333333 
Cu 0.41666666666666663 0.08333333333333333 0.75 
Cu 0.5833333333333333 0.25 0.75 
Cu 0.5833333333333333 0.08333333333333333 0.9166666666666666 
Cu 0.41666666666666663 0.25 0.9166666666666666 
O 0.3333333333333333 0.3333333333333333 0.0 
O 0.5 0.5 0.16666666666666666 
Cu 0.41666666666666663 0.41666666666666663 0.08333333333333333 
Cu 0.5833333333333333 0.5833333333333333 0.08333333333333333 
Cu 0.5833333333333333 0.41666666666666663 0.25 
Cu 0.41666666666666663 0.5833333333333333 0.25 
O 0.3333333333333333 0.3333333333333333 0.3333333333333333 
O 0.5 0.5 0.5 
Cu 0.41666666666666663 0.41666666666666663 0.41666666666666663 
Cu 0.5833333333333333 0.5833333333333333 0.41666666666666663 
Cu 0.5833333333333333 0.41666666666666663 0.5833333333333333 
Cu 0.41666666666666663 0.5833333333333333 0.5833333333333333 
O 0.3333333333333333 0.3333333333333333 0.6666666666666666 
O 0.5 0.5 0.8333333333333333 
Cu 0.41666666666666663 0.41666666666666663 0.75 
Cu 0.5833333333333333 0.5833333333333333 0.75 
Cu 0.5833333333333333 0.41666666666666663 0.9166666666666666 
Cu 0.41666666666666663 0.5833333333333333 0.9166666666666666 
O 0.3333333333333333 0.6666666666666666 0.0 
O 0.5 0.8333333333333333 0.16666666666666666 
Cu 0.41666666666666663 0.75 0.08333333333333333 
Cu 0.5833333333333333 0.9166666666666666 0.08333333333333333 
Cu 0.5833333333333333 0.75 0.25 
Cu 0.41666666666666663 0.9166666666666666 0.25 
O 0.3333333333333333 0.6666666666666666 0.3333333333333333 
O 0.5 0.8333333333333333 0.5 
Cu 0.41666666666666663 0.75 0.41666666666666663 
Cu 0.5833333333333333 0.9166666666666666 0.41666666666666663 
Cu 0.5833333333333333 0.75 0.5833333333333333 
Cu 0.41666666666666663 0.9166666666666666 0.5833333333333333 
O 0.3333333333333333 0.6666666666666666 0.6666666666666666 
O 0.5 0.8333333333333333 0.8333333333333333 
Cu 0.41666666666666663 0.75 0.75 
Cu 0.5833333333333333 0.9166666666666666 0.75 
Cu 0.5833333333333333 0.75 0.9166666666666666 
Cu 0.41666666666666663 0.9166666666666666 0.9166666666666666 
O 0.6666666666666666 0.0 0.0 
O 0.8333333333333333 0.16666666666666666 0.16666666666666666 
Cu 0.75 0.08333333333333333 0.08333333333333333 
Cu 0.9166666666666666 0.25 0.08333333333333333 
Cu 0.9166666666666666 0.08333333333333333 0.25 
Cu 0.75 0.25 0.25 
O 0.6666666666666666 0.0 0.3333333333333333 
O 0.8333333333333333 0.16666666666666666 0.5 
Cu 0.75 0.08333333333333333 0.41666666666666663 
Cu 0.9166666666666666 0.25 0.41666666666666663 
Cu 0.9166666666666666 0.08333333333333333 0.5833333333333333 
Cu 0.75 0.25 0.5833333333333333 
O 0.6666666666666666 0.0 0.6666666666666666 
O 0.8333333333333333 0.16666666666666666 0.8333333333333333 
Cu 0.75 0.08333333333333333 0.75 
Cu 0.9166666666666666 0.25 0.75 
Cu 0.9166666666666666 0.08333333333333333 0.9166666666666666 
Cu 0.75 0.25 0.9166666666666666 
O 0.6666666666666666 0.3333333333333333 0.0 
O 0.8333333333333333 0.5 0.16666666666666666 
Cu 0.75 0.41666666666666663 0.08333333333333333 
Cu 0.9166666666666666 0.5833333333333333 0.08333333333333333 
Cu 0.9166666666666666 0.41666666666666663 0.25 
Cu 0.75 0.5833333333333333 0.25 
O 0.6666666666666666 0.3333333333333333 0.3333333333333333 
O 0.8333333333333333 0.5 0.5 
Cu 0.75 0.41666666666666663 0.41666666666666663 
Cu 0.9166666666666666 0.5833333333333333 0.41666666666666663 
Cu 0.9166666666666666 0.41666666666666663 0.5833333333333333 
Cu 0.75 0.5833333333333333 0.5833333333333333 
O 0.6666666666666666 0.3333333333333333 0.6666666666666666 
O 0.8333333333333333 0.5 0.8333333333333333 
Cu 0.75 0.41666666666666663 0.75 
Cu 0.9166666666666666 0.5833333333333333 0.75 
Cu 0.9166666666666666 0.41666666666666663 0.9166666666666666 
Cu 0.75 0.5833333333333333 0.9166666666666666 
O 0.6666666666666666 0.6666666666666666 0.0 
O 0.8333333333333333 0.8333333333333333 0.16666666666666666 
Cu 0.75 0.75 0.08333333333333333 
Cu 0.9166666666666666 0.9166666666666666 0.08333333333333333 
Cu 0.9166666666666666 0.75 0.25 
Cu 0.75 0.9166666666666666 0.25 
O 0.6666666666666666 0.6666666666666666 0.3333333333333333 
O 0.8333333333333333 0.8333333333333333 0.5 
Cu 0.75 0.75 0.41666666666666663 
Cu 0.9166666666666666 0.9166666666666666 0.41666666666666663 
Cu 0.9166666666666666 0.75 0.5833333333333333 
Cu 0.75 0.9166666666666666 0.5833333333333333 
O 0.6666666666666666 0.6666666666666666 0.6666666666666666 
O 0.8333333333333333 0.8333333333333333 0.8333333333333333 
Cu 0.75 0.75 0.75 
Cu 0.9166666666666666 0.9166666666666666 0.75 
Cu 0.9166666666666666 0.75 0.9166666666666666 
Cu 0.75 0.9166666666666666 0.9166666666666666 

%endblock positions_frac

kpoint_mp_grid 7 7 7

symmetryGenerate