%block lattice_abc
8.3520 8.3520 8.3520
90 90 90
%endblock lattice_abc

%block positions_frac
O 0.0 0.0 0.0 
O 0.25 0.25 0.25 
Cu 0.125 0.125 0.125 
Cu 0.375 0.375 0.125 
Cu 0.375 0.125 0.375 
Cu 0.125 0.375 0.375 
O 0.0 0.0 0.5 
O 0.25 0.25 0.75 
Cu 0.125 0.125 0.625 
Cu 0.375 0.375 0.625 
Cu 0.375 0.125 0.875 
Cu 0.125 0.375 0.875 
O 0.0 0.5 0.0 
O 0.25 0.75 0.25 
Cu 0.125 0.625 0.125 
Cu 0.375 0.875 0.125 
Cu 0.375 0.625 0.375 
Cu 0.125 0.875 0.375 
O 0.0 0.5 0.5 
O 0.25 0.75 0.75 
Cu 0.125 0.625 0.625 
Cu 0.375 0.875 0.625 
Cu 0.375 0.625 0.875 
Cu 0.125 0.875 0.875 
O 0.5 0.0 0.0 
O 0.75 0.25 0.25 
Cu 0.625 0.125 0.125 
Cu 0.875 0.375 0.125 
Cu 0.875 0.125 0.375 
!Cu 0.625 0.375 0.375 
O 0.5 0.0 0.5 
O 0.75 0.25 0.75 
Cu 0.625 0.125 0.625 
Cu 0.875 0.375 0.625 
Cu 0.875 0.125 0.875 
Cu 0.625 0.375 0.875 
O 0.5 0.5 0.0 
O 0.75 0.75 0.25 
Cu 0.625 0.625 0.125 
Cu 0.875 0.875 0.125 
Cu 0.875 0.625 0.375 
Cu 0.625 0.875 0.375 
O 0.5 0.5 0.5 
O 0.75 0.75 0.75 
Cu 0.625 0.625 0.625 
Cu 0.875 0.875 0.625 
Cu 0.875 0.625 0.875 
Cu 0.625 0.875 0.875 

%endblock positions_frac

kpoint_mp_grid 7 7 7

symmetryGenerate