%block lattice_abc
4.1693167 4.1693167 4.1693167
90 90 90
%endblock lattice_abc

%block positions_frac
O 0.00 0.00 0.00
O 0.50 0.50 0.50
Cu 0.25 0.25 0.25
Cu 0.75 0.75 0.25
Cu 0.75 0.25 0.75
Cu 0.25 0.75 0.75
%endblock positions_frac

kpoints_mp_grid 7 7 7

symmetryGenerate

%block phonon_kpoint_path
0.5 0.0 0.0 X
0.5 0.5 0.5 R
0.5 0.5 0.0 M
0.0 0.0 0.0 G
0.5 0.5 0.5 R
%endblock phonon_kpoint_path