# CELL file written 16:00:36 (GMT-0.0) 13th January 2022 from run Cu2O_bands_so_noSymm_LDA

%BLOCK lattice_cart
   ANG
       4.16931670000000        0.00000000000000        0.00000000000000    
      0.255297017564330E-15    4.16931670000000        0.00000000000000    
      0.255297017564330E-15   0.255297017564330E-15    4.16931670000000    
%ENDBLOCK lattice_cart

%BLOCK positions_frac
   O              0.000000000000000       0.000000000000000       0.000000000000000
   O              0.500000000000000       0.500000000000000       0.500000000000000
   Cu             0.250000000000000       0.250000000000000       0.250000000000000
   Cu             0.750000000000000       0.750000000000000       0.250000000000000
   Cu             0.750000000000000       0.250000000000000       0.750000000000000
   Cu             0.250000000000000       0.750000000000000       0.750000000000000
%ENDBLOCK positions_frac

FIX_COM : true

%BLOCK species_pot
   O       2|1.2|23|26|31|20NN:21NN(qc=9)
   Cu      3|1.8|24|28|32|40N:41N:32N1.5(qc=4.5,q2=9.5)
%ENDBLOCK species_pot

SYMMETRY_TOL :     0.001000

%BLOCK symmetry_ops
# Symm. op. 1       E
          1.000000000000000       0.000000000000000       0.000000000000000
          0.000000000000000       1.000000000000000       0.000000000000000
          0.000000000000000       0.000000000000000       1.000000000000000
          0.000000000000000       0.000000000000000       0.000000000000000
%ENDBLOCK symmetry_ops

kpoint_mp_grid :    7   7   7

bs_kpoint_mp_grid :    7   7   7

optics_kpoint_mp_grid :    7   7   7

elnes_kpoint_mp_grid :    7   7   7

magres_kpoint_mp_grid :    7   7   7

phonon_kpoint_mp_grid :    7   7   7

